\ LP format - for model browsing. Use MPS format to capture full model detail.
Minimize
  0.1125 buy((0,0,0,0),(0,0,0,0)) - 0.1575 sell((0,0,0,0),(0,0,0,0))
   + 0.075 buy((0,0,0,0),(0,0,1,0)) - 0.105 sell((0,0,0,0),(0,0,1,0))
   + 0.1125 buy((0,0,1,0),(0,0,0,0)) - 0.1575 sell((0,0,1,0),(0,0,0,0))
   + 0.075 buy((0,0,1,0),(0,0,1,0)) - 0.105 sell((0,0,1,0),(0,0,1,0))
   + 0.1125 buy((0,1,0,0),(0,0,0,0)) - 0.1575 sell((0,1,0,0),(0,0,0,0))
   + 0.075 buy((0,1,0,0),(0,0,1,0)) - 0.105 sell((0,1,0,0),(0,0,1,0))
   + 0.1125 buy((0,1,1,0),(0,0,0,0)) - 0.1575 sell((0,1,1,0),(0,0,0,0))
   + 0.075 buy((0,1,1,0),(0,0,1,0)) - 0.105 sell((0,1,1,0),(0,0,1,0))
   + 0.42 buy((0,0,0,0),(0,0,0,1)) - 0.3675 sell((0,0,0,0),(0,0,0,1))
   + 0.28 buy((0,0,0,0),(0,0,1,1)) - 0.245 sell((0,0,0,0),(0,0,1,1))
   + 0.42 buy((0,0,1,0),(0,0,0,1)) - 0.3675 sell((0,0,1,0),(0,0,0,1))
   + 0.28 buy((0,0,1,0),(0,0,1,1)) - 0.245 sell((0,0,1,0),(0,0,1,1))
   + 0.42 buy((0,1,0,0),(0,0,0,1)) - 0.3675 sell((0,1,0,0),(0,0,0,1))
   + 0.28 buy((0,1,0,0),(0,0,1,1)) - 0.245 sell((0,1,0,0),(0,0,1,1))
   + 0.42 buy((0,1,1,0),(0,0,0,1)) - 0.3675 sell((0,1,1,0),(0,0,0,1))
   + 0.28 buy((0,1,1,0),(0,0,1,1)) - 0.245 sell((0,1,1,0),(0,0,1,1))
   + 0.1125 buy((0,0,0,1),(0,0,0,0)) - 0.1575 sell((0,0,0,1),(0,0,0,0))
   + 0.075 buy((0,0,0,1),(0,0,1,0)) - 0.105 sell((0,0,0,1),(0,0,1,0))
   + 0.1125 buy((0,0,1,1),(0,0,0,0)) - 0.1575 sell((0,0,1,1),(0,0,0,0))
   + 0.075 buy((0,0,1,1),(0,0,1,0)) - 0.105 sell((0,0,1,1),(0,0,1,0))
   + 0.1125 buy((0,1,0,1),(0,0,0,0)) - 0.1575 sell((0,1,0,1),(0,0,0,0))
   + 0.075 buy((0,1,0,1),(0,0,1,0)) - 0.105 sell((0,1,0,1),(0,0,1,0))
   + 0.1125 buy((0,1,1,1),(0,0,0,0)) - 0.1575 sell((0,1,1,1),(0,0,0,0))
   + 0.075 buy((0,1,1,1),(0,0,1,0)) - 0.105 sell((0,1,1,1),(0,0,1,0))
   + 0.42 buy((0,0,0,1),(0,0,0,1)) - 0.3675 sell((0,0,0,1),(0,0,0,1))
   + 0.28 buy((0,0,0,1),(0,0,1,1)) - 0.245 sell((0,0,0,1),(0,0,1,1))
   + 0.42 buy((0,0,1,1),(0,0,0,1)) - 0.3675 sell((0,0,1,1),(0,0,0,1))
   + 0.28 buy((0,0,1,1),(0,0,1,1)) - 0.245 sell((0,0,1,1),(0,0,1,1))
   + 0.42 buy((0,1,0,1),(0,0,0,1)) - 0.3675 sell((0,1,0,1),(0,0,0,1))
   + 0.28 buy((0,1,0,1),(0,0,1,1)) - 0.245 sell((0,1,0,1),(0,0,1,1))
   + 0.42 buy((0,1,1,1),(0,0,0,1)) - 0.3675 sell((0,1,1,1),(0,0,0,1))
   + 0.28 buy((0,1,1,1),(0,0,1,1)) - 0.245 sell((0,1,1,1),(0,0,1,1))
   + 0.75 buy((0,0,0),(0,0,0)) - 1.05 sell((0,0,0),(0,0,0))
   + 0.75 buy((0,1,0),(0,0,0)) - 1.05 sell((0,1,0),(0,0,0))
   + 0.8 buy((0,0,0),(0,0,1)) - 0.7 sell((0,0,0),(0,0,1))
   + 0.8 buy((0,1,0),(0,0,1)) - 0.7 sell((0,1,0),(0,0,1))
   + 0.75 buy((0,0,1),(0,0,0)) - 1.05 sell((0,0,1),(0,0,0))
   + 0.75 buy((0,1,1),(0,0,0)) - 1.05 sell((0,1,1),(0,0,0))
   + 0.8 buy((0,0,1),(0,0,1)) - 0.7 sell((0,0,1),(0,0,1))
   + 0.8 buy((0,1,1),(0,0,1)) - 0.7 sell((0,1,1),(0,0,1))
   + 2.5 buy((0,0),(0,0)) - 3.5 sell((0,0),(0,0)) + 2.5 buy((0,1),(0,0))
   - 3.5 sell((0,1),(0,0)) + 0 stock_local_copy((0,),(0,))
Subject To
 R0: stock((0,0,0,0),(0,0,0,0)) - stock((0,0,0),(0,0,0))
   - buy((0,0,0,0),(0,0,0,0)) + sell((0,0,0,0),(0,0,0,0)) = 0
 R1: demand((0,0,0,0),(0,0,0,0)) = 8
 R2: sell((0,0,0,0),(0,0,0,0)) - demand((0,0,0,0),(0,0,0,0)) <= 0
 R3: sell((0,0,0,0),(0,0,0,0)) - 0.5 demand((0,0,0,0),(0,0,0,0)) >= 0
 R4: stock((0,0,0,0),(0,0,1,0)) - stock((0,0,0),(0,0,1))
   - buy((0,0,0,0),(0,0,1,0)) + sell((0,0,0,0),(0,0,1,0)) = 0
 R5: demand((0,0,0,0),(0,0,1,0)) = 8
 R6: sell((0,0,0,0),(0,0,1,0)) - demand((0,0,0,0),(0,0,1,0)) <= 0
 R7: sell((0,0,0,0),(0,0,1,0)) - 0.5 demand((0,0,0,0),(0,0,1,0)) >= 0
 R8: stock((0,0,1,0),(0,0,0,0)) - stock((0,0,1),(0,0,0))
   - buy((0,0,1,0),(0,0,0,0)) + sell((0,0,1,0),(0,0,0,0)) = 0
 R9: demand((0,0,1,0),(0,0,0,0)) = 8
 R10: sell((0,0,1,0),(0,0,0,0)) - demand((0,0,1,0),(0,0,0,0)) <= 0
 R11: sell((0,0,1,0),(0,0,0,0)) - 0.5 demand((0,0,1,0),(0,0,0,0)) >= 0
 R12: stock((0,0,1,0),(0,0,1,0)) - stock((0,0,1),(0,0,1))
   - buy((0,0,1,0),(0,0,1,0)) + sell((0,0,1,0),(0,0,1,0)) = 0
 R13: demand((0,0,1,0),(0,0,1,0)) = 8
 R14: sell((0,0,1,0),(0,0,1,0)) - demand((0,0,1,0),(0,0,1,0)) <= 0
 R15: sell((0,0,1,0),(0,0,1,0)) - 0.5 demand((0,0,1,0),(0,0,1,0)) >= 0
 R16: stock((0,1,0,0),(0,0,0,0)) - stock((0,1,0),(0,0,0))
   - buy((0,1,0,0),(0,0,0,0)) + sell((0,1,0,0),(0,0,0,0)) = 0
 R17: demand((0,1,0,0),(0,0,0,0)) = 8
 R18: sell((0,1,0,0),(0,0,0,0)) - demand((0,1,0,0),(0,0,0,0)) <= 0
 R19: sell((0,1,0,0),(0,0,0,0)) - 0.5 demand((0,1,0,0),(0,0,0,0)) >= 0
 R20: stock((0,1,0,0),(0,0,1,0)) - stock((0,1,0),(0,0,1))
   - buy((0,1,0,0),(0,0,1,0)) + sell((0,1,0,0),(0,0,1,0)) = 0
 R21: demand((0,1,0,0),(0,0,1,0)) = 8
 R22: sell((0,1,0,0),(0,0,1,0)) - demand((0,1,0,0),(0,0,1,0)) <= 0
 R23: sell((0,1,0,0),(0,0,1,0)) - 0.5 demand((0,1,0,0),(0,0,1,0)) >= 0
 R24: stock((0,1,1,0),(0,0,0,0)) - stock((0,1,1),(0,0,0))
   - buy((0,1,1,0),(0,0,0,0)) + sell((0,1,1,0),(0,0,0,0)) = 0
 R25: demand((0,1,1,0),(0,0,0,0)) = 8
 R26: sell((0,1,1,0),(0,0,0,0)) - demand((0,1,1,0),(0,0,0,0)) <= 0
 R27: sell((0,1,1,0),(0,0,0,0)) - 0.5 demand((0,1,1,0),(0,0,0,0)) >= 0
 R28: stock((0,1,1,0),(0,0,1,0)) - stock((0,1,1),(0,0,1))
   - buy((0,1,1,0),(0,0,1,0)) + sell((0,1,1,0),(0,0,1,0)) = 0
 R29: demand((0,1,1,0),(0,0,1,0)) = 8
 R30: sell((0,1,1,0),(0,0,1,0)) - demand((0,1,1,0),(0,0,1,0)) <= 0
 R31: sell((0,1,1,0),(0,0,1,0)) - 0.5 demand((0,1,1,0),(0,0,1,0)) >= 0
 R32: stock((0,0,0,0),(0,0,0,1)) - stock((0,0,0),(0,0,0))
   - buy((0,0,0,0),(0,0,0,1)) + sell((0,0,0,0),(0,0,0,1)) = 0
 R33: demand((0,0,0,0),(0,0,0,1)) = 8
 R34: sell((0,0,0,0),(0,0,0,1)) - demand((0,0,0,0),(0,0,0,1)) <= 0
 R35: sell((0,0,0,0),(0,0,0,1)) - 0.5 demand((0,0,0,0),(0,0,0,1)) >= 0
 R36: stock((0,0,0,0),(0,0,1,1)) - stock((0,0,0),(0,0,1))
   - buy((0,0,0,0),(0,0,1,1)) + sell((0,0,0,0),(0,0,1,1)) = 0
 R37: demand((0,0,0,0),(0,0,1,1)) = 8
 R38: sell((0,0,0,0),(0,0,1,1)) - demand((0,0,0,0),(0,0,1,1)) <= 0
 R39: sell((0,0,0,0),(0,0,1,1)) - 0.5 demand((0,0,0,0),(0,0,1,1)) >= 0
 R40: stock((0,0,1,0),(0,0,0,1)) - stock((0,0,1),(0,0,0))
   - buy((0,0,1,0),(0,0,0,1)) + sell((0,0,1,0),(0,0,0,1)) = 0
 R41: demand((0,0,1,0),(0,0,0,1)) = 8
 R42: sell((0,0,1,0),(0,0,0,1)) - demand((0,0,1,0),(0,0,0,1)) <= 0
 R43: sell((0,0,1,0),(0,0,0,1)) - 0.5 demand((0,0,1,0),(0,0,0,1)) >= 0
 R44: stock((0,0,1,0),(0,0,1,1)) - stock((0,0,1),(0,0,1))
   - buy((0,0,1,0),(0,0,1,1)) + sell((0,0,1,0),(0,0,1,1)) = 0
 R45: demand((0,0,1,0),(0,0,1,1)) = 8
 R46: sell((0,0,1,0),(0,0,1,1)) - demand((0,0,1,0),(0,0,1,1)) <= 0
 R47: sell((0,0,1,0),(0,0,1,1)) - 0.5 demand((0,0,1,0),(0,0,1,1)) >= 0
 R48: stock((0,1,0,0),(0,0,0,1)) - stock((0,1,0),(0,0,0))
   - buy((0,1,0,0),(0,0,0,1)) + sell((0,1,0,0),(0,0,0,1)) = 0
 R49: demand((0,1,0,0),(0,0,0,1)) = 8
 R50: sell((0,1,0,0),(0,0,0,1)) - demand((0,1,0,0),(0,0,0,1)) <= 0
 R51: sell((0,1,0,0),(0,0,0,1)) - 0.5 demand((0,1,0,0),(0,0,0,1)) >= 0
 R52: stock((0,1,0,0),(0,0,1,1)) - stock((0,1,0),(0,0,1))
   - buy((0,1,0,0),(0,0,1,1)) + sell((0,1,0,0),(0,0,1,1)) = 0
 R53: demand((0,1,0,0),(0,0,1,1)) = 8
 R54: sell((0,1,0,0),(0,0,1,1)) - demand((0,1,0,0),(0,0,1,1)) <= 0
 R55: sell((0,1,0,0),(0,0,1,1)) - 0.5 demand((0,1,0,0),(0,0,1,1)) >= 0
 R56: stock((0,1,1,0),(0,0,0,1)) - stock((0,1,1),(0,0,0))
   - buy((0,1,1,0),(0,0,0,1)) + sell((0,1,1,0),(0,0,0,1)) = 0
 R57: demand((0,1,1,0),(0,0,0,1)) = 8
 R58: sell((0,1,1,0),(0,0,0,1)) - demand((0,1,1,0),(0,0,0,1)) <= 0
 R59: sell((0,1,1,0),(0,0,0,1)) - 0.5 demand((0,1,1,0),(0,0,0,1)) >= 0
 R60: stock((0,1,1,0),(0,0,1,1)) - stock((0,1,1),(0,0,1))
   - buy((0,1,1,0),(0,0,1,1)) + sell((0,1,1,0),(0,0,1,1)) = 0
 R61: demand((0,1,1,0),(0,0,1,1)) = 8
 R62: sell((0,1,1,0),(0,0,1,1)) - demand((0,1,1,0),(0,0,1,1)) <= 0
 R63: sell((0,1,1,0),(0,0,1,1)) - 0.5 demand((0,1,1,0),(0,0,1,1)) >= 0
 R64: stock((0,0,0,1),(0,0,0,0)) - stock((0,0,0),(0,0,0))
   - buy((0,0,0,1),(0,0,0,0)) + sell((0,0,0,1),(0,0,0,0)) = 0
 R65: demand((0,0,0,1),(0,0,0,0)) = 20
 R66: sell((0,0,0,1),(0,0,0,0)) - demand((0,0,0,1),(0,0,0,0)) <= 0
 R67: sell((0,0,0,1),(0,0,0,0)) - 0.5 demand((0,0,0,1),(0,0,0,0)) >= 0
 R68: stock((0,0,0,1),(0,0,1,0)) - stock((0,0,0),(0,0,1))
   - buy((0,0,0,1),(0,0,1,0)) + sell((0,0,0,1),(0,0,1,0)) = 0
 R69: demand((0,0,0,1),(0,0,1,0)) = 20
 R70: sell((0,0,0,1),(0,0,1,0)) - demand((0,0,0,1),(0,0,1,0)) <= 0
 R71: sell((0,0,0,1),(0,0,1,0)) - 0.5 demand((0,0,0,1),(0,0,1,0)) >= 0
 R72: stock((0,0,1,1),(0,0,0,0)) - stock((0,0,1),(0,0,0))
   - buy((0,0,1,1),(0,0,0,0)) + sell((0,0,1,1),(0,0,0,0)) = 0
 R73: demand((0,0,1,1),(0,0,0,0)) = 20
 R74: sell((0,0,1,1),(0,0,0,0)) - demand((0,0,1,1),(0,0,0,0)) <= 0
 R75: sell((0,0,1,1),(0,0,0,0)) - 0.5 demand((0,0,1,1),(0,0,0,0)) >= 0
 R76: stock((0,0,1,1),(0,0,1,0)) - stock((0,0,1),(0,0,1))
   - buy((0,0,1,1),(0,0,1,0)) + sell((0,0,1,1),(0,0,1,0)) = 0
 R77: demand((0,0,1,1),(0,0,1,0)) = 20
 R78: sell((0,0,1,1),(0,0,1,0)) - demand((0,0,1,1),(0,0,1,0)) <= 0
 R79: sell((0,0,1,1),(0,0,1,0)) - 0.5 demand((0,0,1,1),(0,0,1,0)) >= 0
 R80: stock((0,1,0,1),(0,0,0,0)) - stock((0,1,0),(0,0,0))
   - buy((0,1,0,1),(0,0,0,0)) + sell((0,1,0,1),(0,0,0,0)) = 0
 R81: demand((0,1,0,1),(0,0,0,0)) = 20
 R82: sell((0,1,0,1),(0,0,0,0)) - demand((0,1,0,1),(0,0,0,0)) <= 0
 R83: sell((0,1,0,1),(0,0,0,0)) - 0.5 demand((0,1,0,1),(0,0,0,0)) >= 0
 R84: stock((0,1,0,1),(0,0,1,0)) - stock((0,1,0),(0,0,1))
   - buy((0,1,0,1),(0,0,1,0)) + sell((0,1,0,1),(0,0,1,0)) = 0
 R85: demand((0,1,0,1),(0,0,1,0)) = 20
 R86: sell((0,1,0,1),(0,0,1,0)) - demand((0,1,0,1),(0,0,1,0)) <= 0
 R87: sell((0,1,0,1),(0,0,1,0)) - 0.5 demand((0,1,0,1),(0,0,1,0)) >= 0
 R88: stock((0,1,1,1),(0,0,0,0)) - stock((0,1,1),(0,0,0))
   - buy((0,1,1,1),(0,0,0,0)) + sell((0,1,1,1),(0,0,0,0)) = 0
 R89: demand((0,1,1,1),(0,0,0,0)) = 20
 R90: sell((0,1,1,1),(0,0,0,0)) - demand((0,1,1,1),(0,0,0,0)) <= 0
 R91: sell((0,1,1,1),(0,0,0,0)) - 0.5 demand((0,1,1,1),(0,0,0,0)) >= 0
 R92: stock((0,1,1,1),(0,0,1,0)) - stock((0,1,1),(0,0,1))
   - buy((0,1,1,1),(0,0,1,0)) + sell((0,1,1,1),(0,0,1,0)) = 0
 R93: demand((0,1,1,1),(0,0,1,0)) = 20
 R94: sell((0,1,1,1),(0,0,1,0)) - demand((0,1,1,1),(0,0,1,0)) <= 0
 R95: sell((0,1,1,1),(0,0,1,0)) - 0.5 demand((0,1,1,1),(0,0,1,0)) >= 0
 R96: stock((0,0,0,1),(0,0,0,1)) - stock((0,0,0),(0,0,0))
   - buy((0,0,0,1),(0,0,0,1)) + sell((0,0,0,1),(0,0,0,1)) = 0
 R97: demand((0,0,0,1),(0,0,0,1)) = 20
 R98: sell((0,0,0,1),(0,0,0,1)) - demand((0,0,0,1),(0,0,0,1)) <= 0
 R99: sell((0,0,0,1),(0,0,0,1)) - 0.5 demand((0,0,0,1),(0,0,0,1)) >= 0
 R100: stock((0,0,0,1),(0,0,1,1)) - stock((0,0,0),(0,0,1))
   - buy((0,0,0,1),(0,0,1,1)) + sell((0,0,0,1),(0,0,1,1)) = 0
 R101: demand((0,0,0,1),(0,0,1,1)) = 20
 R102: sell((0,0,0,1),(0,0,1,1)) - demand((0,0,0,1),(0,0,1,1)) <= 0
 R103: sell((0,0,0,1),(0,0,1,1)) - 0.5 demand((0,0,0,1),(0,0,1,1)) >= 0
 R104: stock((0,0,1,1),(0,0,0,1)) - stock((0,0,1),(0,0,0))
   - buy((0,0,1,1),(0,0,0,1)) + sell((0,0,1,1),(0,0,0,1)) = 0
 R105: demand((0,0,1,1),(0,0,0,1)) = 20
 R106: sell((0,0,1,1),(0,0,0,1)) - demand((0,0,1,1),(0,0,0,1)) <= 0
 R107: sell((0,0,1,1),(0,0,0,1)) - 0.5 demand((0,0,1,1),(0,0,0,1)) >= 0
 R108: stock((0,0,1,1),(0,0,1,1)) - stock((0,0,1),(0,0,1))
   - buy((0,0,1,1),(0,0,1,1)) + sell((0,0,1,1),(0,0,1,1)) = 0
 R109: demand((0,0,1,1),(0,0,1,1)) = 20
 R110: sell((0,0,1,1),(0,0,1,1)) - demand((0,0,1,1),(0,0,1,1)) <= 0
 R111: sell((0,0,1,1),(0,0,1,1)) - 0.5 demand((0,0,1,1),(0,0,1,1)) >= 0
 R112: stock((0,1,0,1),(0,0,0,1)) - stock((0,1,0),(0,0,0))
   - buy((0,1,0,1),(0,0,0,1)) + sell((0,1,0,1),(0,0,0,1)) = 0
 R113: demand((0,1,0,1),(0,0,0,1)) = 20
 R114: sell((0,1,0,1),(0,0,0,1)) - demand((0,1,0,1),(0,0,0,1)) <= 0
 R115: sell((0,1,0,1),(0,0,0,1)) - 0.5 demand((0,1,0,1),(0,0,0,1)) >= 0
 R116: stock((0,1,0,1),(0,0,1,1)) - stock((0,1,0),(0,0,1))
   - buy((0,1,0,1),(0,0,1,1)) + sell((0,1,0,1),(0,0,1,1)) = 0
 R117: demand((0,1,0,1),(0,0,1,1)) = 20
 R118: sell((0,1,0,1),(0,0,1,1)) - demand((0,1,0,1),(0,0,1,1)) <= 0
 R119: sell((0,1,0,1),(0,0,1,1)) - 0.5 demand((0,1,0,1),(0,0,1,1)) >= 0
 R120: stock((0,1,1,1),(0,0,0,1)) - stock((0,1,1),(0,0,0))
   - buy((0,1,1,1),(0,0,0,1)) + sell((0,1,1,1),(0,0,0,1)) = 0
 R121: demand((0,1,1,1),(0,0,0,1)) = 20
 R122: sell((0,1,1,1),(0,0,0,1)) - demand((0,1,1,1),(0,0,0,1)) <= 0
 R123: sell((0,1,1,1),(0,0,0,1)) - 0.5 demand((0,1,1,1),(0,0,0,1)) >= 0
 R124: stock((0,1,1,1),(0,0,1,1)) - stock((0,1,1),(0,0,1))
   - buy((0,1,1,1),(0,0,1,1)) + sell((0,1,1,1),(0,0,1,1)) = 0
 R125: demand((0,1,1,1),(0,0,1,1)) = 20
 R126: sell((0,1,1,1),(0,0,1,1)) - demand((0,1,1,1),(0,0,1,1)) <= 0
 R127: sell((0,1,1,1),(0,0,1,1)) - 0.5 demand((0,1,1,1),(0,0,1,1)) >= 0
 R128: stock((0,0,0),(0,0,0)) - stock((0,0),(0,0)) - buy((0,0,0),(0,0,0))
   + sell((0,0,0),(0,0,0)) = 0
 R129: demand((0,0,0),(0,0,0)) = 12
 R130: sell((0,0,0),(0,0,0)) - demand((0,0,0),(0,0,0)) <= 0
 R131: sell((0,0,0),(0,0,0)) - 0.5 demand((0,0,0),(0,0,0)) >= 0
 R132: stock((0,1,0),(0,0,0)) - stock((0,1),(0,0)) - buy((0,1,0),(0,0,0))
   + sell((0,1,0),(0,0,0)) = 0
 R133: demand((0,1,0),(0,0,0)) = 12
 R134: sell((0,1,0),(0,0,0)) - demand((0,1,0),(0,0,0)) <= 0
 R135: sell((0,1,0),(0,0,0)) - 0.5 demand((0,1,0),(0,0,0)) >= 0
 R136: stock((0,0,0),(0,0,1)) - stock((0,0),(0,0)) - buy((0,0,0),(0,0,1))
   + sell((0,0,0),(0,0,1)) = 0
 R137: demand((0,0,0),(0,0,1)) = 12
 R138: sell((0,0,0),(0,0,1)) - demand((0,0,0),(0,0,1)) <= 0
 R139: sell((0,0,0),(0,0,1)) - 0.5 demand((0,0,0),(0,0,1)) >= 0
 R140: stock((0,1,0),(0,0,1)) - stock((0,1),(0,0)) - buy((0,1,0),(0,0,1))
   + sell((0,1,0),(0,0,1)) = 0
 R141: demand((0,1,0),(0,0,1)) = 12
 R142: sell((0,1,0),(0,0,1)) - demand((0,1,0),(0,0,1)) <= 0
 R143: sell((0,1,0),(0,0,1)) - 0.5 demand((0,1,0),(0,0,1)) >= 0
 R144: stock((0,0,1),(0,0,0)) - stock((0,0),(0,0)) - buy((0,0,1),(0,0,0))
   + sell((0,0,1),(0,0,0)) = 0
 R145: demand((0,0,1),(0,0,0)) = 20
 R146: sell((0,0,1),(0,0,0)) - demand((0,0,1),(0,0,0)) <= 0
 R147: sell((0,0,1),(0,0,0)) - 0.5 demand((0,0,1),(0,0,0)) >= 0
 R148: stock((0,1,1),(0,0,0)) - stock((0,1),(0,0)) - buy((0,1,1),(0,0,0))
   + sell((0,1,1),(0,0,0)) = 0
 R149: demand((0,1,1),(0,0,0)) = 20
 R150: sell((0,1,1),(0,0,0)) - demand((0,1,1),(0,0,0)) <= 0
 R151: sell((0,1,1),(0,0,0)) - 0.5 demand((0,1,1),(0,0,0)) >= 0
 R152: stock((0,0,1),(0,0,1)) - stock((0,0),(0,0)) - buy((0,0,1),(0,0,1))
   + sell((0,0,1),(0,0,1)) = 0
 R153: demand((0,0,1),(0,0,1)) = 20
 R154: sell((0,0,1),(0,0,1)) - demand((0,0,1),(0,0,1)) <= 0
 R155: sell((0,0,1),(0,0,1)) - 0.5 demand((0,0,1),(0,0,1)) >= 0
 R156: stock((0,1,1),(0,0,1)) - stock((0,1),(0,0)) - buy((0,1,1),(0,0,1))
   + sell((0,1,1),(0,0,1)) = 0
 R157: demand((0,1,1),(0,0,1)) = 20
 R158: sell((0,1,1),(0,0,1)) - demand((0,1,1),(0,0,1)) <= 0
 R159: sell((0,1,1),(0,0,1)) - 0.5 demand((0,1,1),(0,0,1)) >= 0
 R160: stock((0,0),(0,0)) - stock((0,),(0,)) - buy((0,0),(0,0))
   + sell((0,0),(0,0)) = 0
 R161: demand((0,0),(0,0)) = 10
 R162: sell((0,0),(0,0)) - demand((0,0),(0,0)) <= 0
 R163: sell((0,0),(0,0)) - 0.5 demand((0,0),(0,0)) >= 0
 R164: stock((0,1),(0,0)) - stock((0,),(0,)) - buy((0,1),(0,0))
   + sell((0,1),(0,0)) = 0
 R165: demand((0,1),(0,0)) = 15
 R166: sell((0,1),(0,0)) - demand((0,1),(0,0)) <= 0
 R167: sell((0,1),(0,0)) - 0.5 demand((0,1),(0,0)) >= 0
 R168: stock((0,),(0,)) = 5
Bounds
 stock((0,0,0,0),(0,0,0,0)) <= 100
 stock((0,0,0,0),(0,0,0,1)) <= 100
 stock((0,0,0,0),(0,0,1,0)) <= 100
 stock((0,0,0,0),(0,0,1,1)) <= 100
 stock((0,0,0,1),(0,0,0,0)) <= 100
 stock((0,0,0,1),(0,0,0,1)) <= 100
 stock((0,0,0,1),(0,0,1,0)) <= 100
 stock((0,0,0,1),(0,0,1,1)) <= 100
 stock((0,0,1,0),(0,0,0,0)) <= 100
 stock((0,0,1,0),(0,0,0,1)) <= 100
 stock((0,0,1,0),(0,0,1,0)) <= 100
 stock((0,0,1,0),(0,0,1,1)) <= 100
 stock((0,0,1,1),(0,0,0,0)) <= 100
 stock((0,0,1,1),(0,0,0,1)) <= 100
 stock((0,0,1,1),(0,0,1,0)) <= 100
 stock((0,0,1,1),(0,0,1,1)) <= 100
 stock((0,1,0,0),(0,0,0,0)) <= 100
 stock((0,1,0,0),(0,0,0,1)) <= 100
 stock((0,1,0,0),(0,0,1,0)) <= 100
 stock((0,1,0,0),(0,0,1,1)) <= 100
 stock((0,1,0,1),(0,0,0,0)) <= 100
 stock((0,1,0,1),(0,0,0,1)) <= 100
 stock((0,1,0,1),(0,0,1,0)) <= 100
 stock((0,1,0,1),(0,0,1,1)) <= 100
 stock((0,1,1,0),(0,0,0,0)) <= 100
 stock((0,1,1,0),(0,0,0,1)) <= 100
 stock((0,1,1,0),(0,0,1,0)) <= 100
 stock((0,1,1,0),(0,0,1,1)) <= 100
 stock((0,1,1,1),(0,0,0,0)) <= 100
 stock((0,1,1,1),(0,0,0,1)) <= 100
 stock((0,1,1,1),(0,0,1,0)) <= 100
 stock((0,1,1,1),(0,0,1,1)) <= 100
 stock((0,0,0),(0,0,0)) <= 100
 stock((0,0,0),(0,0,1)) <= 100
 stock((0,0,1),(0,0,0)) <= 100
 stock((0,0,1),(0,0,1)) <= 100
 stock((0,1,0),(0,0,0)) <= 100
 stock((0,1,0),(0,0,1)) <= 100
 stock((0,1,1),(0,0,0)) <= 100
 stock((0,1,1),(0,0,1)) <= 100
 demand((0,0,0,0),(0,0,0,0)) free
 demand((0,0,0,0),(0,0,1,0)) free
 demand((0,0,1,0),(0,0,0,0)) free
 demand((0,0,1,0),(0,0,1,0)) free
 demand((0,1,0,0),(0,0,0,0)) free
 demand((0,1,0,0),(0,0,1,0)) free
 demand((0,1,1,0),(0,0,0,0)) free
 demand((0,1,1,0),(0,0,1,0)) free
 demand((0,0,0,0),(0,0,0,1)) free
 demand((0,0,0,0),(0,0,1,1)) free
 demand((0,0,1,0),(0,0,0,1)) free
 demand((0,0,1,0),(0,0,1,1)) free
 demand((0,1,0,0),(0,0,0,1)) free
 demand((0,1,0,0),(0,0,1,1)) free
 demand((0,1,1,0),(0,0,0,1)) free
 demand((0,1,1,0),(0,0,1,1)) free
 demand((0,0,0,1),(0,0,0,0)) free
 demand((0,0,0,1),(0,0,1,0)) free
 demand((0,0,1,1),(0,0,0,0)) free
 demand((0,0,1,1),(0,0,1,0)) free
 demand((0,1,0,1),(0,0,0,0)) free
 demand((0,1,0,1),(0,0,1,0)) free
 demand((0,1,1,1),(0,0,0,0)) free
 demand((0,1,1,1),(0,0,1,0)) free
 demand((0,0,0,1),(0,0,0,1)) free
 demand((0,0,0,1),(0,0,1,1)) free
 demand((0,0,1,1),(0,0,0,1)) free
 demand((0,0,1,1),(0,0,1,1)) free
 demand((0,1,0,1),(0,0,0,1)) free
 demand((0,1,0,1),(0,0,1,1)) free
 demand((0,1,1,1),(0,0,0,1)) free
 demand((0,1,1,1),(0,0,1,1)) free
 stock((0,0),(0,0)) <= 100
 stock((0,1),(0,0)) <= 100
 demand((0,0,0),(0,0,0)) free
 demand((0,1,0),(0,0,0)) free
 demand((0,0,0),(0,0,1)) free
 demand((0,1,0),(0,0,1)) free
 demand((0,0,1),(0,0,0)) free
 demand((0,1,1),(0,0,0)) free
 demand((0,0,1),(0,0,1)) free
 demand((0,1,1),(0,0,1)) free
 stock((0,),(0,)) <= 100
 demand((0,0),(0,0)) free
 demand((0,1),(0,0)) free
 stock_local_copy((0,),(0,)) <= 100
End
